<number of tasks>
50

<cycle time>
1000

<order strength>
0.199


<task times>
1 441
2 37
3 210
4 377
5 233
6 405
7 422
8 51
9 223
10 159
11 127
12 193
13 287
14 113
15 152
16 278
17 91
18 96
19 40
20 553
21 171
22 149
23 106
24 87
25 75
26 304
27 119
28 203
29 157
30 61
31 42
32 41
33 128
34 280
35 26
36 255
37 561
38 531
39 53
40 158
41 245
42 257
43 272
44 455
45 199
46 249
47 48
48 401
49 108
50 330

<precedence relations>
1,5
2,4
2,6
2,9
2,30
3,7
3,8
3,10
4,11
5,14
6,12
7,16
8,15
9,32
9,36
10,13
10,16
11,17
12,19
13,18
13,20
13,23
13,30
15,21
15,22
17,24
18,25
19,27
20,29
21,26
21,28
22,30
22,31
22,32
23,32
24,35
25,35
26,33
27,36
28,34
29,35
31,36
32,37
32,38
32,39
33,40
34,41
38,42
38,43
39,44
39,45
40,46
41,47
41,49
41,50
42,48

<end>
